4 10 200 1
0 200
  0 70.00 70.00 0.00 0.00 0 0 0 634
  1 10.00 86.00 10.00 14.00 1 1 1 411 441
  2 16.00 62.00 10.00 15.00 1 1 1 396 426
  3 84.00 36.00 10.00 10.00 1 1 1 102 132
  4 79.00 72.00 10.00 22.00 1 1 1 9 39
  5 16.00 39.00 10.00 20.00 1 1 1 81 111
  6 61.00 54.00 10.00 10.00 1 1 1 40 70
  7 96.00 26.00 10.00 10.00 1 1 1 57 87
  8 16.00 92.00 10.00 10.00 1 1 1 359 389
  9 85.00 106.00 10.00 20.00 1 1 1 45 75
  10 6.00 25.00 10.00 10.00 1 1 1 130 160
  11 37.00 125.00 10.00 10.00 1 1 1 343 373
  12 87.00 108.00 10.00 20.00 1 1 1 58 88
  13 18.00 104.00 10.00 18.00 1 1 1 337 367
  14 61.00 48.00 10.00 20.00 1 1 1 68 98
  15 97.00 29.00 10.00 30.00 1 1 1 49 79
  16 112.00 67.00 10.00 10.00 1 1 1 83 113
  17 50.00 106.00 10.00 25.00 1 1 1 320 350
  18 99.00 28.00 10.00 30.00 1 1 1 82 112
  19 15.00 9.00 10.00 2.00 1 1 1 410 440
  20 19.00 37.00 10.00 20.00 1 1 1 126 156
  21 90.00 101.00 10.00 10.00 1 1 1 155 185
  22 125.00 68.00 10.00 20.00 1 1 1 192 222
  23 127.00 108.00 10.00 10.00 1 1 1 135 165
  24 90.00 44.00 10.00 6.00 1 1 1 52 82
  25 4.00 23.00 10.00 10.00 1 1 1 117 147
  26 17.00 37.00 10.00 30.00 1 1 1 103 133
  27 113.00 32.00 10.00 36.00 1 1 1 144 174
  28 63.00 57.00 10.00 10.00 1 1 1 15 45
  29 94.00 104.00 10.00 10.00 1 1 1 128 158
  30 58.00 95.00 10.00 35.00 1 1 1 485 515
  31 137.00 96.00 10.00 9.00 1 1 1 71 101
  32 127.00 112.00 10.00 20.00 1 1 1 121 151
  33 103.00 119.00 10.00 18.00 1 1 1 334 364
  34 20.00 69.00 10.00 13.00 1 1 1 378 408
  35 2.00 28.00 10.00 10.00 1 1 1 79 109
  36 88.00 29.00 10.00 33.00 1 1 1 550 580
  37 86.00 102.00 10.00 10.00 1 1 1 35 65
  38 126.00 112.00 10.00 10.00 1 1 1 110 140
  39 61.00 34.00 10.00 7.00 1 1 1 473 503
  40 113.00 69.00 10.00 20.00 1 1 1 70 100
  41 109.00 78.00 10.00 21.00 1 1 1 238 268
  42 21.00 48.00 10.00 10.00 1 1 1 53 83
  43 86.00 36.00 10.00 20.00 1 1 1 79 109
  44 97.00 12.00 10.00 10.00 1 1 1 206 236
  45 121.00 112.00 10.00 20.00 1 1 1 74 104
  46 19.00 39.00 10.00 10.00 1 1 1 138 168
  47 66.00 40.00 10.00 20.00 1 1 1 30 60
  48 87.00 39.00 10.00 20.00 1 1 1 35 65
  49 63.00 50.00 10.00 10.00 1 1 1 55 85
  50 121.00 123.00 10.00 9.00 1 1 1 257 287
  51 116.00 22.00 10.00 32.00 1 1 1 138 168
  52 137.00 101.00 10.00 12.00 1 1 1 169 199
  53 137.00 137.00 10.00 27.00 1 1 1 100 130
  54 70.00 94.00 10.00 32.00 1 1 1 24 54
  55 117.00 92.00 10.00 25.00 1 1 1 283 313
  56 122.00 113.00 10.00 20.00 1 1 1 85 115
  57 109.00 71.00 10.00 20.00 1 1 1 39 69
  58 35.00 102.00 10.00 10.00 1 1 1 172 202
  59 91.00 108.00 10.00 10.00 1 1 1 72 102
  60 8.00 87.00 10.00 17.00 1 1 1 401 431
  61 140.00 42.00 10.00 13.00 1 1 1 101 131
  62 16.00 38.00 10.00 20.00 1 1 1 92 122
  63 44.00 36.00 10.00 9.00 1 1 1 48 78
  64 60.00 84.00 10.00 23.00 1 1 1 482 512
  65 109.00 139.00 10.00 8.00 1 1 1 113 143
  66 80.00 103.00 10.00 15.00 1 1 1 372 402
  67 66.00 82.00 10.00 27.00 1 1 1 501 531
  68 99.00 26.00 10.00 40.00 1 1 1 70 100
  69 34.00 108.00 10.00 10.00 1 1 1 121 151
  70 135.00 65.00 10.00 3.00 1 1 1 339 369
  71 36.00 124.00 10.00 34.00 1 1 1 234 264
  72 102.00 60.00 10.00 30.00 1 1 1 135 165
  73 30.00 21.00 10.00 12.00 1 1 1 322 352
  74 139.00 110.00 10.00 19.00 1 1 1 191 221
  75 10.00 111.00 10.00 21.00 1 1 1 493 523
  76 18.00 70.00 10.00 26.00 1 1 1 391 421
  77 4.00 28.00 10.00 10.00 1 1 1 144 174
  78 57.00 53.00 10.00 10.00 1 1 1 94 124
  79 54.00 41.00 10.00 9.00 1 1 1 281 311
  80 107.00 25.00 10.00 13.00 1 1 1 274 304
  81 110.00 99.00 10.00 21.00 1 1 1 303 333
  82 84.00 88.00 10.00 16.00 1 1 1 356 386
  83 101.00 0.00 10.00 9.00 1 1 1 498 528
  84 28.00 99.00 10.00 10.00 1 1 1 51 81
  85 119.00 114.00 10.00 20.00 1 1 1 65 95
  86 118.00 108.00 10.00 10.00 1 1 1 175 205
  87 50.00 112.00 10.00 18.00 1 1 1 232 262
  88 44.00 116.00 10.00 27.00 1 1 1 53 83
  89 82.00 100.00 10.00 18.00 1 1 1 104 134
  90 83.00 12.00 10.00 29.00 1 1 1 230 260
  91 126.00 23.00 10.00 13.00 1 1 1 263 293
  92 85.00 75.00 10.00 37.00 1 1 1 15 45
  93 39.00 13.00 10.00 20.00 1 1 1 376 406
  94 120.00 136.00 10.00 10.00 1 1 1 115 145
  95 105.00 2.00 10.00 1.00 1 1 1 224 254
  96 36.00 54.00 10.00 15.00 1 1 1 372 402
  97 35.00 90.00 10.00 20.00 1 1 1 446 476
  98 111.00 66.00 10.00 20.00 1 1 1 94 124
  99 119.00 136.00 10.00 30.00 1 1 1 104 134
  100 84.00 99.00 10.00 20.00 1 1 1 32 62
  101 137.00 127.00 10.00 28.00 1 1 1 196 226
  102 95.00 35.00 10.00 10.00 1 1 1 49 79
  103 69.00 6.00 10.00 8.00 1 1 1 83 113
  104 1.00 24.00 10.00 10.00 1 1 1 104 134
  105 31.00 112.00 10.00 20.00 1 1 1 106 136
  106 138.00 78.00 10.00 43.00 1 1 1 202 232
  107 100.00 99.00 10.00 17.00 1 1 1 299 329
  108 123.00 112.00 10.00 20.00 1 1 1 97 127
  109 119.00 130.00 10.00 20.00 1 1 1 153 183
  110 92.00 22.00 10.00 18.00 1 1 1 190 220
  111 137.00 7.00 10.00 40.00 1 1 1 156 186
  112 121.00 124.00 10.00 21.00 1 1 1 150 180
  113 34.00 104.00 10.00 10.00 1 1 1 147 177
  114 121.00 110.00 10.00 30.00 1 1 1 161 191
  115 56.00 139.00 10.00 18.00 1 1 1 310 340
  116 106.00 10.00 10.00 13.00 1 1 1 299 329
  117 125.00 108.00 10.00 20.00 1 1 1 147 177
  118 21.00 115.00 10.00 10.00 1 1 1 86 116
  119 110.00 66.00 10.00 10.00 1 1 1 105 135
  120 36.00 38.00 10.00 5.00 1 1 1 438 468
  121 56.00 129.00 10.00 21.00 1 1 1 287 317
  122 4.00 30.00 10.00 40.00 1 1 1 156 186
  123 8.00 138.00 10.00 10.00 1 1 1 291 321
  124 88.00 35.00 10.00 20.00 1 1 1 66 96
  125 116.00 132.00 10.00 10.00 1 1 1 177 207
  126 113.00 45.00 10.00 4.00 1 1 1 299 329
  127 28.00 107.00 10.00 20.00 1 1 1 65 95
  128 115.00 134.00 10.00 30.00 1 1 1 78 108
  129 116.00 83.00 10.00 30.00 1 1 1 179 209
  130 57.00 59.00 10.00 10.00 1 1 1 122 152
  131 89.00 39.00 10.00 23.00 1 1 1 36 66
  132 59.00 52.00 10.00 20.00 1 1 1 82 112
  133 112.00 71.00 10.00 20.00 1 1 1 47 77
  134 35.00 99.00 10.00 20.00 1 1 1 185 215
  135 23.00 39.00 10.00 20.00 1 1 1 352 382
  136 84.00 39.00 10.00 20.00 1 1 1 115 145
  137 19.00 120.00 10.00 16.00 1 1 1 261 291
  138 20.00 39.00 10.00 10.00 1 1 1 149 179
  139 90.00 104.00 10.00 20.00 1 1 1 142 172
  140 66.00 91.00 10.00 16.00 1 1 1 21 51
  141 4.00 44.00 10.00 24.00 1 1 1 416 446
  142 78.00 63.00 10.00 19.00 1 1 1 10 40
  143 92.00 107.00 10.00 30.00 1 1 1 83 113
  144 37.00 138.00 10.00 5.00 1 1 1 210 240
  145 120.00 14.00 10.00 20.00 1 1 1 259 289
  146 33.00 0.00 10.00 20.00 1 1 1 482 512
  147 113.00 71.00 10.00 10.00 1 1 1 58 88
  148 112.00 13.00 10.00 27.00 1 1 1 524 554
  149 41.00 36.00 10.00 13.00 1 1 1 51 81
  150 64.00 61.00 10.00 20.00 1 1 1 149 179
  151 121.00 134.00 10.00 20.00 1 1 1 127 157
  152 103.00 44.00 10.00 12.00 1 1 1 42 72
  153 67.00 55.00 10.00 10.00 1 1 1 15 45
  154 86.00 80.00 10.00 21.00 1 1 1 374 404
  155 64.00 132.00 10.00 8.00 1 1 1 62 92
  156 93.00 36.00 10.00 20.00 1 1 1 41 71
  157 115.00 124.00 10.00 11.00 1 1 1 411 441
  158 103.00 82.00 10.00 27.00 1 1 1 326 356
  159 18.00 38.00 10.00 30.00 1 1 1 115 145
  160 122.00 131.00 10.00 20.00 1 1 1 140 170
  161 107.00 63.00 10.00 30.00 1 1 1 119 149
  162 48.00 47.00 10.00 19.00 1 1 1 31 61
  163 62.00 58.00 10.00 20.00 1 1 1 26 56
  164 0.00 27.00 10.00 30.00 1 1 1 91 121
  165 118.00 114.00 10.00 10.00 1 1 1 65 95
  166 91.00 95.00 10.00 20.00 1 1 1 171 201
  167 113.00 35.00 10.00 9.00 1 1 1 55 85
  168 119.00 139.00 10.00 20.00 1 1 1 91 121
  169 104.00 54.00 10.00 13.00 1 1 1 53 83
  170 15.00 4.00 10.00 23.00 1 1 1 101 131
  171 59.00 56.00 10.00 20.00 1 1 1 108 138
  172 21.00 44.00 10.00 20.00 1 1 1 55 85
  173 100.00 106.00 10.00 10.00 1 1 1 101 131
  174 47.00 83.00 10.00 1.00 1 1 1 318 348
  175 34.00 72.00 10.00 21.00 1 1 1 549 579
  176 32.00 106.00 10.00 10.00 1 1 1 134 164
  177 109.00 131.00 10.00 20.00 1 1 1 72 102
  178 89.00 24.00 10.00 15.00 1 1 1 301 331
  179 97.00 28.00 10.00 20.00 1 1 1 49 79
  180 86.00 37.00 10.00 10.00 1 1 1 90 120
  181 1.00 34.00 10.00 20.00 1 1 1 77 107
  182 103.00 69.00 10.00 30.00 1 1 1 33 63
  183 98.00 31.00 10.00 20.00 1 1 1 95 125
  184 103.00 34.00 10.00 30.00 1 1 1 111 141
  185 13.00 48.00 10.00 15.00 1 1 1 420 450
  186 22.00 38.00 10.00 20.00 1 1 1 161 191
  187 61.00 59.00 10.00 20.00 1 1 1 136 166
  188 94.00 105.00 10.00 10.00 1 1 1 117 147
  189 118.00 131.00 10.00 20.00 1 1 1 164 194
  190 108.00 30.00 10.00 18.00 1 1 1 96 126
  191 36.00 105.00 10.00 20.00 1 1 1 159 189
  192 133.00 130.00 10.00 13.00 1 1 1 222 252
  193 15.00 18.00 10.00 10.00 1 1 1 400 430
  194 103.00 86.00 10.00 19.00 1 1 1 258 288
  195 107.00 77.00 10.00 34.00 1 1 1 37 67
  196 99.00 34.00 10.00 9.00 1 1 1 76 106
  197 17.00 43.00 10.00 10.00 1 1 1 67 97
  198 140.00 36.00 10.00 1.00 1 1 1 176 206
  199 26.00 105.00 10.00 40.00 1 1 1 56 86
  200 60.00 23.00 10.00 16.00 1 1 1 54 84
